Data path: /scratch/opt/lxu/CFLG/benchmarks/tree_A
Instance: treeA.500.50
Result path: /scratch/opt/lxu/CFLG/results/tree_A
Solver: Gurobi
Time limit: 7200
Formulation: LEFPAV
Cover: Large
julia --project=. src/main.jl /scratch/opt/lxu/CFLG/benchmarks/tree_A treeA.500.50 /scratch/opt/lxu/CFLG/results/tree_A Gurobi 7200 LEFPAV Large
The latest version of Julia in the `release` channel is 1.11.5+0.x64.linux.gnu. You currently have `1.11.4+0.x64.linux.gnu` installed. Run:

  juliaup update

in your terminal shell to install Julia 1.11.5+0.x64.linux.gnu and update the `release` channel to that version.
/scratch/opt/lxu/CFLG/benchmarks/tree_A Gurobi 7200.0 /scratch/opt/lxu/CFLG/results/tree_A treeA.500.50 LEFPAV Large
/scratch/opt/lxu/CFLG/benchmarks/tree_A/treeA.500.50

 read graph
data loaded

problem_graph/original graph: node: 500/500 edge: 549/549 dlt: 2.9895555760766013 break_avg_len: 1.4947777880383006 break_max_len: 1.9980070812005684Vbar/V, Ebar/E(236, 500, 285, 549)
Set parameter TokenServer to value "solice01.zib.de"
Set parameter Threads to value 1
Set parameter OutputFlag to value 1
Gurobi Optimizer version 12.0.1 build v12.0.1rc0 (linux64 - "Debian GNU/Linux 12 (bookworm)")

CPU model: Intel(R) Xeon(R) Gold 5122 CPU @ 3.60GHz, instruction set [SSE2|AVX|AVX2|AVX512]
Thread count: 8 physical cores, 16 logical processors, using up to 1 threads

Non-default parameters:
Threads  1

Optimize a model with 707 rows, 1134 columns and 1890 nonzeros
Model fingerprint: 0x94116d53
Coefficient statistics:
  Matrix range     [1e+00, 1e+00]
  Objective range  [1e+00, 1e+00]
  Bounds range     [1e+00, 1e+00]
  RHS range        [1e+00, 1e+00]
Presolve removed 707 rows and 1134 columns
Presolve time: 0.00s
Presolve: All rows and columns removed
Iteration    Objective       Primal Inf.    Dual Inf.      Time
       0    9.3000000e+01   0.000000e+00   0.000000e+00      0s

Solved in 0 iterations and 0.00 seconds (0.00 work units)
Optimal objective  9.300000000e+01

User-callback calls 35, time in user-callback 0.00 sec
elapsed CPU time: 1.444423 seconds
Set parameter TokenServer to value "solice01.zib.de"
Set parameter Threads to value 1
Set parameter OutputFlag to value 1
Set parameter MIPGap to value 0.0001
Set parameter MIPGapAbs to value 0.999998
Set parameter TimeLimit to value 7198.555577

 more cuts: false 2.9895555760766013 false
is_attach:trueformulation:LEFPAV0 378 0
Set parameter PreCrush to value 1

 model loaded

Gurobi Optimizer version 12.0.1 build v12.0.1rc0 (linux64 - "Debian GNU/Linux 12 (bookworm)")

CPU model: Intel(R) Xeon(R) Gold 5122 CPU @ 3.60GHz, instruction set [SSE2|AVX|AVX2|AVX512]
Thread count: 8 physical cores, 16 logical processors, using up to 1 threads

Non-default parameters:
TimeLimit  7198.555577
MIPGapAbs  0.999998
PreCrush  1
Threads  1

Optimize a model with 11433 rows, 6650 columns and 31713 nonzeros
Model fingerprint: 0x354f8239
Variable types: 1085 continuous, 5565 integer (5565 binary)
Coefficient statistics:
  Matrix range     [1e-06, 6e+00]
  Objective range  [1e+00, 1e+00]
  Bounds range     [5e-03, 3e+00]
  RHS range        [1e-06, 6e+00]
Presolve removed 6304 rows and 3334 columns
Presolve time: 0.19s
Presolved: 5129 rows, 3316 columns, 21766 nonzeros
Variable types: 515 continuous, 2801 integer (2801 binary)
Found heuristic solution: objective 363.0000000
Found heuristic solution: objective 360.0000000
Found heuristic solution: objective 244.0000000

Root relaxation: objective 1.129469e+02, 3141 iterations, 0.05 seconds (0.05 work units)

    Nodes    |    Current Node    |     Objective Bounds      |     Work
 Expl Unexpl |  Obj  Depth IntInf | Incumbent    BestBd   Gap | It/Node Time

     0     0  112.94686    0  678  244.00000  112.94686  53.7%     -    0s
H    0     0                     235.0000000  112.94686  51.9%     -    0s
H    0     0                     190.0000000  112.94686  40.6%     -    0s
H    0     0                     187.0000000  112.94686  39.6%     -    0s
H    0     0                     186.0000000  112.94686  39.3%     -    0s
elapsed CPU time: 9.238782757470562e12 seconds
     0     0  119.56896    0  852  186.00000  119.56896  35.7%     -    1s
H    0     0                     169.0000000  119.56900  29.2%     -    1s
H    0     0                     168.0000000  119.56900  28.8%     -    1s
elapsed CPU time: 4.607182418800041e12 seconds
     0     0  119.59480    0  841  168.00000  119.59480  28.8%     -    1s
elapsed CPU time: 1.8416033786232855e13 seconds
     0     0  119.68270    0  832  168.00000  119.68270  28.8%     -    1s
elapsed CPU time: 9.246901525559695e12 seconds
     0     0  119.70146    0  829  168.00000  119.70146  28.7%     -    1s
elapsed CPU time: 0.022632 seconds
     0     0  119.70963    0  842  168.00000  119.70963  28.7%     -    1s
elapsed CPU time: 0.022996 seconds
     0     0  119.70986    0  839  168.00000  119.70986  28.7%     -    1s
elapsed CPU time: 0.022769 seconds
     0     0  125.81819    0  763  168.00000  125.81819  25.1%     -    1s
elapsed CPU time: 4.606073200546176e12 seconds
     0     0  125.90587    0  785  168.00000  125.90587  25.1%     -    1s
elapsed CPU time: 1.101096470732228e9 seconds
     0     0  125.91162    0  778  168.00000  125.91162  25.1%     -    1s
elapsed CPU time: 9.212736357800107e12 seconds
     0     0  125.91581    0  764  168.00000  125.91581  25.1%     -    1s
elapsed CPU time: 0.043399 seconds
     0     0  125.92208    0  749  168.00000  125.92208  25.0%     -    1s
elapsed CPU time: 0.02251 seconds
     0     0  125.92305    0  761  168.00000  125.92305  25.0%     -    1s
elapsed CPU time: 0.022919 seconds
     0     0  129.21575    0  741  168.00000  129.21575  23.1%     -    2s
H    0     0                     167.0000000  129.21575  22.6%     -    2s
H    0     0                     166.0000000  129.21575  22.2%     -    2s
elapsed CPU time: 1.3825262050923797e13 seconds
     0     0  129.41271    0  744  166.00000  129.41271  22.0%     -    2s
elapsed CPU time: 1.535592542263704e9 seconds
     0     0  129.42194    0  727  166.00000  129.42194  22.0%     -    2s
elapsed CPU time: 0.022789 seconds
     0     0  129.42194    0  752  166.00000  129.42194  22.0%     -    2s
elapsed CPU time: 0.022449 seconds
     0     0  130.86168    0  666  166.00000  130.86168  21.2%     -    2s
H    0     0                     163.0000000  130.88209  19.7%     -    2s
H    0     0                     161.0000000  130.88209  18.7%     -    2s
H    0     0                     160.0000000  130.88209  18.2%     -    2s
H    0     0                     159.0000000  130.88209  17.7%     -    2s
elapsed CPU time: 0.034013 seconds
     0     0  130.88549    0  666  159.00000  130.88549  17.7%     -    2s
elapsed CPU time: 1.3833843876617541e13 seconds
     0     0  130.89401    0  704  159.00000  130.89401  17.7%     -    2s
elapsed CPU time: 9.21413950643584e12 seconds
     0     0  130.89401    0  698  159.00000  130.89401  17.7%     -    2s
elapsed CPU time: 0.022447 seconds
     0     0  131.09954    0  609  159.00000  131.09954  17.5%     -    2s
H    0     0                     157.0000000  131.10787  16.5%     -    2s
elapsed CPU time: 1.8418846624739516e13 seconds
     0     0  131.10787    0  560  157.00000  131.10787  16.5%     -    2s
elapsed CPU time: 9.226960726843742e12 seconds
     0     0  131.10787    0  568  157.00000  131.10787  16.5%     -    2s
H    0     0                     149.0000000  131.10787  12.0%     -    2s
H    0     0                     146.0000000  131.10787  10.2%     -    2s
elapsed CPU time: 0.032875 seconds
     0     0  131.10787    0  583  146.00000  131.10787  10.2%     -    2s
elapsed CPU time: 0.022573 seconds
     0     0  131.12917    0  353  146.00000  131.12917  10.2%     -    2s
elapsed CPU time: 1.3847640909300127e13 seconds
     0     0  131.32917    0  438  146.00000  131.32917  10.0%     -    3s
elapsed CPU time: 0.022706 seconds
     0     0  131.32917    0  474  146.00000  131.32917  10.0%     -    3s
elapsed CPU time: 4.61390478994259e12 seconds
     0     0  131.32917    0  335  146.00000  131.32917  10.0%     -    3s
elapsed CPU time: 1.8440021702567035e13 seconds
H    0     0                     145.0000000  131.32917  9.43%     -    3s
H    0     0                     144.0000000  131.32917  8.80%     -    3s
H    0     0                     143.0000000  131.32917  8.16%     -    3s
H    0     0                     142.0000000  131.32917  7.51%     -    3s
elapsed CPU time: 1.3854576804741799e13 seconds
     0     2  131.32917    0  359  142.00000  131.32917  7.51%     -    3s
H  378   326                     141.0000000  131.56944  6.69%  32.4    4s
   405   349  137.66559   90  153  141.00000  131.56944  6.69%  31.1    5s
H  579   450                     140.0000000  134.60713  3.85%  27.8    8s
   598   463  136.00195   18  244  140.00000  136.00195  2.86%  26.9   10s
   638   490  139.16667   82  270  140.00000  136.55556  2.46%  25.2   15s
   760   559  138.00000   30   82  140.00000  137.33333  1.90%   220   20s
  1445   759  139.00000   44  130  140.00000  137.40912  1.85%   132   25s
H 1975   268                     139.0000000  137.50000  1.08%   108   28s
  2342   279  137.66667   22  171  139.00000  137.66667  0.96%  96.1   30s
  3463   668  137.90000   46  225  139.00000  137.88945  0.80%  81.4   35s
  4699   771     cutoff   55       139.00000  138.00000  0.72%  73.2   40s
  5859   737  138.00000   65   43  139.00000  138.00000  0.72%  69.4   45s
  6890   739  138.00000   51   80  139.00000  138.00000  0.72%  65.8   50s
  7898   728  138.00000   59   82  139.00000  138.00000  0.72%  64.6   55s
  9305   689  138.00000   60   49  139.00000  138.00000  0.72%  62.0   60s
 10535   660     cutoff   51       139.00000  138.00000  0.72%  59.9   65s
 11709   618  138.00000   60  155  139.00000  138.00000  0.72%  60.1   70s
 11817   635     cutoff   56       139.00000  138.00000  0.72%  60.2   83s
 12308   652  138.00000   49  102  139.00000  138.00000  0.72%  59.9   85s
 13522   653  138.00000   51   24  139.00000  138.00000  0.72%  59.5   90s
 14630   637  138.00000   42   86  139.00000  138.00000  0.72%  59.2   95s
 15736   616     cutoff   45       139.00000  138.00000  0.72%  59.0  100s
 16719   620     cutoff   48       139.00000  138.00000  0.72%  59.6  105s
 17816   602  138.00000   55  132  139.00000  138.00000  0.72%  59.5  110s
 19011   558     cutoff   65       139.00000  138.00000  0.72%  59.5  115s
 20217   526     cutoff   48       139.00000  138.00000  0.72%  59.6  120s
 21371   519  138.00000   56  103  139.00000  138.00000  0.72%  59.7  125s
 22417   498  138.00000   47  191  139.00000  138.00000  0.72%  59.8  130s
 23814   496  138.00000   53  137  139.00000  138.00000  0.72%  59.0  135s
 25034   499     cutoff   43       139.00000  138.00000  0.72%  58.6  140s
 26431   518  138.00000   58  114  139.00000  138.00000  0.72%  58.1  145s
 27626   521  138.00000   47  175  139.00000  138.00000  0.72%  58.0  150s
 28983   522     cutoff   65       139.00000  138.00000  0.72%  57.4  155s
 30311   504  138.00000   39  129  139.00000  138.00000  0.72%  57.3  160s
 31437   511  138.00000   53  120  139.00000  138.00000  0.72%  57.2  165s
 32634   516     cutoff   42       139.00000  138.00000  0.72%  57.0  170s
 33941   517  138.00000   44  128  139.00000  138.00000  0.72%  56.6  175s
 35144   522  138.00000   51   87  139.00000  138.00000  0.72%  56.5  180s
 36353   503  138.00000   40   84  139.00000  138.00000  0.72%  56.5  185s
 37614   517  138.00000   42   64  139.00000  138.00000  0.72%  56.5  190s
 38819   520     cutoff   49       139.00000  138.00000  0.72%  56.4  195s
 40047   509  138.00000   42  122  139.00000  138.00000  0.72%  56.2  200s
 41243   514  138.00000   46   78  139.00000  138.00000  0.72%  56.1  205s
 42436   513  138.00000   44  123  139.00000  138.00000  0.72%  55.7  210s
 43817   504  138.00000   40   92  139.00000  138.00000  0.72%  55.3  215s
 44988   499  138.00000   57   88  139.00000  138.00000  0.72%  55.3  220s
 46201   489  138.00000   52  199  139.00000  138.00000  0.72%  55.3  225s
 47477   488     cutoff   47       139.00000  138.00000  0.72%  55.3  230s
 48782   504  138.00000   39   80  139.00000  138.00000  0.72%  55.2  235s
 49872   512     cutoff   51       139.00000  138.00000  0.72%  55.1  240s
 50996   513  138.00000   48  135  139.00000  138.00000  0.72%  55.2  245s
 51992   494  138.00000   59  166  139.00000  138.00000  0.72%  55.4  250s
 53275   489  138.00000   49  124  139.00000  138.00000  0.72%  55.3  255s
 54708   487  138.00000   50   58  139.00000  138.00000  0.72%  54.9  260s
 56028   489  138.00000   60  132  139.00000  138.00000  0.72%  54.7  265s
 57388   481     cutoff   52       139.00000  138.00000  0.72%  54.5  270s
 58679   490  138.00000   58  142  139.00000  138.00000  0.72%  54.4  275s
 59734   490     cutoff   39       139.00000  138.00000  0.72%  54.4  280s
 61267   481  138.00000   50   91  139.00000  138.00000  0.72%  54.0  285s
 62594   494  138.00000   47   55  139.00000  138.00000  0.72%  53.8  290s
 63738   491  138.00000   43   78  139.00000  138.00000  0.72%  53.9  295s
 64916   497  138.00000   51  102  139.00000  138.00000  0.72%  53.9  300s
 66053   495     cutoff   54       139.00000  138.00000  0.72%  53.9  305s
 67496   501  138.00000   50   62  139.00000  138.00000  0.72%  53.7  310s
 68896   489  138.00000   42   68  139.00000  138.00000  0.72%  53.5  315s
 69839   499  138.00000   49   67  139.00000  138.00000  0.72%  53.7  320s
 71071   504  138.00000   54  101  139.00000  138.00000  0.72%  53.7  325s
 72136   508  138.00000   61   82  139.00000  138.00000  0.72%  53.8  330s
 73471   490  138.00000   44  120  139.00000  138.00000  0.72%  53.8  335s
 74877   491     cutoff   44       139.00000  138.00000  0.72%  53.7  340s
 76233   495  138.00000   46   84  139.00000  138.00000  0.72%  53.7  345s
 77454   501  138.00000   54   84  139.00000  138.00000  0.72%  53.8  350s
 78615   490     cutoff   49       139.00000  138.00000  0.72%  53.9  355s
 79957   491  138.00000   50  108  139.00000  138.00000  0.72%  53.9  360s
 81318   486     cutoff   55       139.00000  138.00000  0.72%  53.7  365s
 82576   503  138.00000   42   83  139.00000  138.00000  0.72%  53.8  370s
 83744   506  138.00000   44   90  139.00000  138.00000  0.72%  53.8  375s
 84966   510  138.00000   42  194  139.00000  138.00000  0.72%  53.9  380s
 86064   515     cutoff   51       139.00000  138.00000  0.72%  54.0  385s
 87358   492     cutoff   46       139.00000  138.00000  0.72%  54.0  390s
 88594   493  138.00000   51   85  139.00000  138.00000  0.72%  54.0  395s
 89795   506  138.00000   45   94  139.00000  138.00000  0.72%  54.1  400s
 91042   503     cutoff   57       139.00000  138.00000  0.72%  54.2  405s
 92318   524  138.00000   54  152  139.00000  138.00000  0.72%  54.2  410s
 93478   486  138.00000   39  165  139.00000  138.00000  0.72%  54.2  415s
 94699   497  138.00000   48   98  139.00000  138.00000  0.72%  54.3  420s
 95855   503  138.00000   44  184  139.00000  138.00000  0.72%  54.4  425s
 97015   485     cutoff   47       139.00000  138.00000  0.72%  54.5  430s
 98092   492  138.00000   51   89  139.00000  138.00000  0.72%  54.5  435s
 99348   510  138.00000   45  132  139.00000  138.00000  0.72%  54.4  440s
 100561   515  138.00000   45   43  139.00000  138.00000  0.72%  54.4  445s
 102031   508     cutoff   57       139.00000  138.00000  0.72%  54.2  450s
 103360   483  138.00000   41  182  139.00000  138.00000  0.72%  54.2  455s
 104548   524  138.00000   68  106  139.00000  138.00000  0.72%  54.3  460s
 105807   564  138.00000   60  119  139.00000  138.00000  0.72%  54.3  465s
 107021   549  138.00000   50  112  139.00000  138.00000  0.72%  54.4  470s
 108277   534  138.00000   52  103  139.00000  138.00000  0.72%  54.6  475s
 109481   506  138.00000   45  158  139.00000  138.00000  0.72%  54.7  480s
 110605   518  138.00000   48  230  139.00000  138.00000  0.72%  54.9  485s
 111662   527  138.00000   60  130  139.00000  138.00000  0.72%  55.0  490s
 113055   573  138.00000   59  145  139.00000  138.00000  0.72%  55.0  495s
 114431   538     cutoff   63       139.00000  138.00000  0.72%  55.1  500s
 115696   523  138.00000   52  119  139.00000  138.00000  0.72%  55.1  505s
 117076   533  138.00000   65  146  139.00000  138.00000  0.72%  55.2  510s
 118331   521  138.00000   42  107  139.00000  138.00000  0.72%  55.3  515s
 119611   495  138.00000   40  120  139.00000  138.00000  0.72%  55.4  520s
 120846   501     cutoff   53       139.00000  138.00000  0.72%  55.4  525s
 121919   502     cutoff   49       139.00000  138.00000  0.72%  55.5  530s
 123202   501  138.00000   51   99  139.00000  138.00000  0.72%  55.5  535s
 124402   528  138.00000   56   93  139.00000  138.00000  0.72%  55.4  540s
 125552   526  138.00000   57   73  139.00000  138.00000  0.72%  55.5  545s
 126914   508  138.00000   60  152  139.00000  138.00000  0.72%  55.4  550s
 128110   495     cutoff   47       139.00000  138.00000  0.72%  55.4  555s
 129175   533  138.00000   50  168  139.00000  138.00000  0.72%  55.4  560s
 130448   499     cutoff   49       139.00000  138.00000  0.72%  55.4  565s
 131657   508     cutoff   54       139.00000  138.00000  0.72%  55.4  570s
 132905   493  138.00000   45  139  139.00000  138.00000  0.72%  55.4  575s
 134194   481  138.00000   52   74  139.00000  138.00000  0.72%  55.4  580s
 135534   485     cutoff   53       139.00000  138.00000  0.72%  55.4  585s
 136852   488  138.00000   45  196  139.00000  138.00000  0.72%  55.4  590s
 137822   501  138.00000   52   72  139.00000  138.00000  0.72%  55.5  595s
 139044   493  138.00000   47  110  139.00000  138.00000  0.72%  55.5  600s
 140490   496  138.00000   48  147  139.00000  138.00000  0.72%  55.4  605s
 141762   504  138.00000   52  127  139.00000  138.00000  0.72%  55.5  610s
 143018   499     cutoff   44       139.00000  138.00000  0.72%  55.5  615s
 144324   542  138.00000   47  128  139.00000  138.00000  0.72%  55.5  620s
 145663   524  138.00000   48  134  139.00000  138.00000  0.72%  55.5  625s
 146915   496     cutoff   69       139.00000  138.00000  0.72%  55.6  630s
 148234   478  138.00000   49  128  139.00000  138.00000  0.72%  55.6  635s
 149521   448  138.00000   30  363  139.00000  138.00000  0.72%  55.6  640s
 150904   458     cutoff   78       139.00000  138.00000  0.72%  55.6  645s
 151937   435  138.00000   51   99  139.00000  138.00000  0.72%  55.7  650s
 153109   424  138.00000   48  219  139.00000  138.00000  0.72%  55.8  655s
 154273   370  138.00000   49  320  139.00000  138.00000  0.72%  55.9  660s
 155324   379  138.00000   55  103  139.00000  138.00000  0.72%  56.1  665s
 156181   384  138.00000   52  100  139.00000  138.00000  0.72%  56.2  670s
 157273   361  138.00000   58  224  139.00000  138.00000  0.72%  56.4  675s
 158463   362     cutoff   69       139.00000  138.00000  0.72%  56.4  680s
 159654   359  138.00000   64  229  139.00000  138.00000  0.72%  56.5  685s
 160782   357  138.00000   70  118  139.00000  138.00000  0.72%  56.6  690s
 161996   309  138.00000   58   62  139.00000  138.00000  0.72%  56.7  695s
 163202   314  138.00000   41  235  139.00000  138.00000  0.72%  56.7  700s
 164519   310  138.00000   51  107  139.00000  138.00000  0.72%  56.8  705s
 165947   309  138.00000   47  148  139.00000  138.00000  0.72%  56.7  710s
 166955   269  138.00000   41  237  139.00000  138.00000  0.72%  56.8  715s
 168089   236  138.00000   48  206  139.00000  138.00000  0.72%  56.8  720s
 168869   183  138.00000   59  188  139.00000  138.00000  0.72%  56.9  725s
 170090   160  138.00000   46  175  139.00000  138.00000  0.72%  57.0  730s
 171360    85     cutoff   59       139.00000  138.00000  0.72%  57.0  735s

Cutting planes:
  Learned: 8
  Gomory: 49
  Lift-and-project: 2
  Cover: 137
  Implied bound: 65
  Clique: 3
  MIR: 135
  Mixing: 9
  StrongCG: 11
  Flow cover: 457
  GUB cover: 75
  Inf proof: 5
  Zero half: 125
  RLT: 48
  Relax-and-lift: 34
  BQP: 11

Explored 172062 nodes (9820651 simplex iterations) in 737.76 seconds (558.68 work units)
Thread count was 1 (of 16 available processors)

Solution count 10: 139 139 140 ... 144

Optimal solution found (tolerance 1.00e-04)
Best objective 1.390000000000e+02, best bound 1.380000118455e+02, gap 0.7194%

User-callback calls 611201, time in user-callback 2.93 sec

 sepatime1.7060554372753478e14 873880 30
139.0Stat(MathOptInterface.OPTIMAL, 139.0, 138.00001184553562, 0.007194159384635796, 1.7060554372753478e14, 1.444423, 737.7589371204376, 172062, Main.CFLG.LEFPAV, "", #undef)
